c read Graph
c width = 117
c time = 67 ms
c width = 13
c time = 141 ms
c width = 12
c time = 230 ms
c width = 11
c time = 1118 ms
c width = 10
c time = 3121 ms
c width = 10
c time = 5008 ms
s td 120 11 130
b 1 1 2 14
b 2 2 3 14 15
b 3 11 12 25 26
b 4 3 14 15 27
b 5 11 25 26 39
b 6 92 105 106 119
b 7 104 116 117 129
b 8 92 106 119 120
b 9 104 116 128 129
b 10 3 4 5 17
b 11 3 5 16 17 28 40
b 12 5 16 17 28 30 40 42
b 13 16 28 29 30 42
b 14 5 17 28 30 40 42 54
b 15 28 40 41 42 54
b 16 5 17 30 40 42 54 66
b 17 40 53 54 66
b 18 5 17 19 30 31 42 54 66
b 19 5 19 30 31 42 45 54 56 57 66
b 20 30 31 42 44 45 56 57
b 21 30 42 43 44 56
b 22 5 19 31 33 42 45 54 56 57 66
b 23 5 19 33 42 45 54 56 57 66 68
b 24 5 19 33 45 54 56 57 66 68 69
b 25 5 7 19 33 45 54 57 66 68 69
b 26 7 19 21 33 45 54 57 66 68 69
b 27 7 9 21 33 45 54 57 66 68 69
b 28 9 21 33 45 54 57 66 67 68 69
b 29 9 21 33 45 57 66 67 68 69 80
b 30 9 21 33 45 57 66 68 69 79 80
b 31 9 21 33 45 57 68 69 79 80 81
b 32 7 8 9 21
b 33 7 19 20 21 33
b 34 5 6 7 19
b 35 42 54 55 56 68
b 36 19 31 32 33 45
b 37 5 17 18 19 31
b 38 3 16 27 28 40
b 39 3 15 16 27 28
b 40 9 21 33 34 45 46 57 69 79 80 81
b 41 9 21 34 45 46 57 58 69 79 80 81
b 42 9 21 34 46 57 58 69 70 79 80 81
b 43 9 21 34 46 58 69 70 79 80 81 82
b 44 9 21 34 46 58 70 79 80 81 82 92
b 45 9 21 34 46 58 70 80 81 82 92 93
b 46 9 21 34 46 58 70 81 82 92 93 94
b 47 9 21 34 46 58 70 82 92 93 94 106
b 48 9 21 34 46 58 70 82 92 94 106 120
b 49 9 21 34 46 58 70 82 94 106 107 120
b 50 9 21 34 46 58 70 82 94 95 107 120
b 51 9 21 34 46 58 70 82 83 95 107 120
b 52 9 21 34 46 58 70 71 83 95 107 120
b 53 9 21 34 46 58 59 71 83 95 107 120
b 54 9 21 34 46 47 59 71 83 95 107 120
b 55 9 21 34 35 47 59 71 83 95 107 120
b 56 9 21 35 47 59 71 83 95 107 108 120
b 57 9 21 35 47 59 71 83 95 96 108 120
b 58 9 21 35 47 59 71 83 84 96 108 120
b 59 9 21 35 47 59 71 72 84 96 108 120
b 60 9 21 35 47 59 60 72 84 96 108 120
b 61 9 21 35 47 60 72 84 96 108 120 121
b 62 9 21 35 47 60 72 84 96 108 109 121
b 63 9 21 35 47 60 72 84 96 97 109 121
b 64 9 21 35 47 60 72 84 85 97 109 121
b 65 9 21 35 47 60 72 73 85 97 109 121
b 66 9 21 35 47 60 61 73 85 97 109 121
b 67 9 21 35 47 61 73 85 97 109 121 122
b 68 9 21 35 47 61 73 85 97 109 110 122
b 69 9 21 35 47 61 73 85 97 98 110 122
b 70 9 21 35 47 61 73 85 86 98 110 122
b 71 9 21 35 47 61 73 74 86 98 110 122
b 72 9 21 35 47 61 74 86 98 110 122 123
b 73 9 21 35 47 61 74 86 98 110 111 123
b 74 9 21 35 47 61 74 86 98 99 111 123
b 75 9 21 35 47 61 74 86 87 99 111 123
b 76 9 21 35 47 61 74 75 87 99 111 123
b 77 9 21 35 47 61 75 87 99 111 123 124
b 78 9 21 35 47 61 75 87 99 111 112 124
b 79 9 21 35 47 61 75 87 99 100 112 124
b 80 9 21 35 47 61 75 87 88 100 112 124
b 81 9 21 35 47 61 75 88 100 112 124 125
b 82 9 21 35 47 61 75 88 100 112 113 125
b 83 9 21 35 47 61 75 88 100 101 113 125
b 84 9 21 35 47 61 75 88 89 101 113 125
b 85 9 21 35 47 61 75 89 101 113 125 127
b 86 9 21 35 47 61 75 89 101 113 115 127
b 87 9 21 35 47 61 75 89 101 103 115 127
b 88 9 21 35 47 61 75 89 103 104 115 127
b 89 9 21 35 47 61 75 89 90 103 104 127
b 90 9 21 35 47 61 75 76 89 90 104 127
b 91 9 21 35 47 61 75 76 78 90 104 127
b 92 9 21 35 47 61 64 75 76 78 90
b 93 9 21 35 47 61 62 64 75 76 78
b 94 9 21 35 47 50 61 62 64 76 78
b 95 9 21 35 36 47 50 61 62 64 78
b 96 9 21 23 35 36 50 64 78
b 97 9 23 36 50 52 64 78
b 98 9 23 36 38 50 52 64
b 99 38 50 51 52 64
b 100 9 23 24 36 38 50 52
b 101 9 11 23 24 38 52
b 102 11 24 38 39 52
b 103 11 24 25 38 39
b 104 9 10 11 23
b 105 24 36 37 38 50
b 106 52 64 65 78
b 107 9 21 22 23 35
b 108 35 36 47 48 50 61 62
b 109 36 48 49 50 62
b 110 50 62 63 64 76
b 111 64 76 77 78 90
b 112 89 101 102 103 115
b 113 103 104 115 127 128
b 114 103 104 115 116 128
b 115 78 90 91 104
b 116 101 113 114 115 127
b 117 113 125 126 127
b 118 117 129 130
b 119 105 118 119
b 120 12 13 26
1 2
2 4
3 120
3 5
4 39
5 103
6 119
6 8
7 118
7 9
8 48
9 114
10 11
11 38
11 12
12 14
12 13
14 16
14 15
16 18
16 17
18 37
18 19
19 22
19 20
20 21
22 36
22 23
23 35
23 24
24 25
25 34
25 26
26 33
26 27
27 32
27 28
28 29
29 30
30 31
31 40
38 39
40 41
41 42
42 43
43 44
44 45
45 46
46 47
47 48
48 49
49 50
50 51
51 52
52 53
53 54
54 55
55 56
56 57
57 58
58 59
59 60
60 61
61 62
62 63
63 64
64 65
65 66
66 67
67 68
68 69
69 70
70 71
71 72
72 73
73 74
74 75
75 76
76 77
77 78
78 79
79 80
80 81
81 82
82 83
83 84
84 85
85 117
85 86
86 116
86 87
87 112
87 88
88 113
88 89
89 90
90 91
91 92
91 115
92 93
92 111
93 94
94 110
94 95
95 96
95 108
96 107
96 97
97 106
97 98
98 99
98 100
100 105
100 101
101 104
101 102
102 103
108 109
113 114
